(set-logic QF_SLIA)
(declare-fun var0 () String)
(declare-fun var1 () String)
(declare-fun var2 () String)
(declare-fun var3 () String)
(declare-fun var4 () String)
(declare-fun var5 () Int)
(declare-fun var6 () Int)
(declare-fun var7 () Int)
(declare-fun var8 () String)
(declare-fun var9 () Int)
(declare-fun var10 () String)
(declare-fun var11 () String)
(declare-fun var12 () String)
(declare-fun var13 () String)
(declare-fun var14 () String)
(declare-fun var15 () String)
(declare-fun var16 () String)
(declare-fun var17 () Int)
(declare-fun var18 () String)
(declare-fun var19 () String)
(declare-fun var20 () String)
(declare-fun var21 () Bool)
(declare-fun var22 () Bool)
(assert (str.prefixof (str.++ var0 var1) (str.++ var2 var3)))
(assert (str.suffixof (str.++ (str.replace (str.++ var2 var1) (str.++ var0 var4) (str.at var1 var5)) (str.substr var3 var6 var7)) (str.substr (str.++ var4 var8) (str.indexof "E@2xV=b_'r)0vQ<m1'*w<?}3]6/9sjn-*S=dt]jb&b7w=G2""qx?qFerp@Cs~29Pw8M%5K.CkaQ;-""(u[W&VmqVR)$-,N{97HV($oV4$YQ?<Q_vtJiKvHP@H""BkHaIC%}|V]SW)DW}|ID;r`y/P_&XEZs]lWc" var4 var9) (str.indexof var10 var0 var5))))
(assert (str.prefixof (str.replace var3 var8 var3) (str.substr var11 var7 var9)))
(assert (= (str.len (str.at var12 72)) (str.indexof (str.replace var13 var14 var15) (str.substr var16 183 var17) (str.indexof var18 var16 var7))))
(assert (<= (str.indexof (str.replace (str.substr var19 var6 var9) (str.++ var20 var12) (str.replace var0 var13 var0)) (str.replace (str.++ var18 var20) (str.replace var12 var8 var2) (str.substr var13 var9 var6)) (str.indexof (str.replace var14 "7X.wO>pfE2q~D|J;]/mo2Vt7K;Oc{Y-5H,iK#ZcSSK4%rI""y}:<33A3(J:w7IU9Sm?L,s,[TY$>ac#bQ'CBJ6W_6:gSz4vGoUs4iFgRJ2#w9_SgnE][?~2deT7-t^|/!2q.T^){m}SA9ZS[cTU'Hj%?clW5F>NuK-A<O@Fr]v\\i1wmQuQrmFPfX.S?67=`Qx$+K#Wp)HQ#P-cOf;sZr6Vzo]dyhE~`OqIO94)[RT""pWNC7{-n#}C|UxQ%y/Fp:1|~yB^H:Aj_9@MOUBWs*a0]\\nJcM%V-P~Jk|`,9#7_!8*g.y4\\!}6Gq(S!/|y[Pni[lm8E5_fpvI#MXMnTP6pWq-zMFY:EEqE=KmC-!?{M]koqh_mOp%env'f-G^U_6F[qrmKsThE@nzH3gj`C-)%XzZX$I9+po^B6bhd)Cb=y=@Q2/QG~cx^;P5VR&I""7(-so2izQ%b|.p5r<.f\\t,3:R^!xBxZ$o]=O[u!dy_?W:" var19) (str.++ var20 var11) (str.indexof var10 var19 var6))) (str.indexof (str.++ (str.replace var14 var3 "u") (str.at var11 var7)) (str.at var18 var17) (str.len var10))))
(assert (or (< (str.to.int var15) (str.indexof var11 var4 var9)) (>= var5 var6)))
(assert (and (str.prefixof (str.at (str.++ var20 var19) (str.to.int var18)) (str.at (str.++ var14 var15) (str.to.int var11))) (str.suffixof (str.substr var4 198 var7) (str.substr var16 var6 var17))))
(assert (str.prefixof (str.++ var15 var18) (str.substr var13 170 var5)))
(assert (str.suffixof (str.at var0 var17) (str.substr var0 var6 var5)))
(assert (str.contains (str.++ (str.substr var19 142 var7) (str.substr var18 var9 98)) (str.at var19 var5)))
(assert (>= var9 84))
(assert (< (str.indexof (str.++ var14 var18) (str.substr var14 (str.len var10) (str.indexof (str.substr var19 var5 var7) (str.replace var4 var3 var4) (str.indexof var13 var14 var7))) (str.len var3)) (str.to.int (str.substr (str.substr var4 var5 var5) (str.len (str.at "=GDWaoxFK)Z)~zz|Os$pC#9ueOkw*|8<*Y8mqn(F`?|I)k[KzAh?~_""Iv0ji._=po:|E;R\\u6*g@UY[mmOI$<qQ{4W|afMx[elYxMa(ufiwR)qNm=Ct" var7)) (str.len (str.at "=GDWaoxFK)Z)~zz|Os$pC#9ueOkw*|8<*Y8mqn(F`?|I)k[KzAh?~_""Iv0ji._=po:|E;R\\u6*g@UY[mmOI$<qQ{4W|afMx[elYxMa(ufiwR)qNm=Ct" var7))))))
(assert (or var21 var22))
(check-sat)